num_wann        = 56
num_bands       = 68 
dis_num_iter    = 400
num_iter        = 8000
guiding_centres =.true.
spinors         = .true.
use_ws_distance = .true.
write_xyz = .true.
write_hr = .true.
restart = default

begin atoms_frac
W        0.000000000   0.602083497   0.500244478
W        0.500000000   0.958254798   0.514864463
Te       0.000000000   0.859876487   0.657616629
Te       0.500000000   0.352954518   0.613367162
Te       0.500000000   0.700364267   0.357479252
Te       0.000000000   0.207356441   0.401718010
end atoms_frac

begin projections
W:s,d
Te:s,p
end projections

begin unit_cell_cart
bohr
6.576   0.000    0.000
0.000   11.849952  0.000
0.000   0.000    26.5118016  
end unit_cell_cart

wannier_plot = .true.
wannier_plot_spinor_phase = .true.
wannier_plot_spinor_mode = up_real
wannier_plot_mode = crystal
wannier_plot_radius = 4
wannier_plot_list = 1-19
wannier_plot_supercell = 3
wannier_plot_format = xcrysden
bands_plot = .true.

begin kpoint_path
X  0.500000 0.00000 0.00000  G  0.000000 0.00000 0.00000
G  0.000000 0.00000 0.00000  X  0.500000 0.00000 0.00000
end kpoint_path

mp_grid : 20 15 1

begin kpoints
    0.000000000000000    0.000000000000000    0.000000000000000    0.0033333333
    0.000000000000000    0.066666666666667    0.000000000000000    0.0033333333
    0.000000000000000    0.133333333333333    0.000000000000000    0.0033333333
    0.000000000000000    0.200000000000000    0.000000000000000    0.0033333333
    0.000000000000000    0.266666666666667    0.000000000000000    0.0033333333
    0.000000000000000    0.333333333333333    0.000000000000000    0.0033333333
    0.000000000000000    0.400000000000000    0.000000000000000    0.0033333333
    0.000000000000000    0.466666666666667    0.000000000000000    0.0033333333
    0.000000000000000   -0.466666666666667    0.000000000000000    0.0033333333
    0.000000000000000   -0.400000000000000    0.000000000000000    0.0033333333
    0.000000000000000   -0.333333333333333    0.000000000000000    0.0033333333
    0.000000000000000   -0.266666666666667    0.000000000000000    0.0033333333
    0.000000000000000   -0.200000000000000    0.000000000000000    0.0033333333
    0.000000000000000   -0.133333333333333    0.000000000000000    0.0033333333
    0.000000000000000   -0.066666666666667    0.000000000000000    0.0033333333
    0.050000000000000    0.000000000000000    0.000000000000000    0.0033333333
    0.050000000000000    0.066666666666667    0.000000000000000    0.0033333333
    0.050000000000000    0.133333333333333    0.000000000000000    0.0033333333
    0.050000000000000    0.200000000000000    0.000000000000000    0.0033333333
    0.050000000000000    0.266666666666667    0.000000000000000    0.0033333333
    0.050000000000000    0.333333333333333    0.000000000000000    0.0033333333
    0.050000000000000    0.400000000000000    0.000000000000000    0.0033333333
    0.050000000000000    0.466666666666667    0.000000000000000    0.0033333333
    0.050000000000000   -0.466666666666667    0.000000000000000    0.0033333333
    0.050000000000000   -0.400000000000000    0.000000000000000    0.0033333333
    0.050000000000000   -0.333333333333333    0.000000000000000    0.0033333333
    0.050000000000000   -0.266666666666667    0.000000000000000    0.0033333333
    0.050000000000000   -0.200000000000000    0.000000000000000    0.0033333333
    0.050000000000000   -0.133333333333333    0.000000000000000    0.0033333333
    0.050000000000000   -0.066666666666667    0.000000000000000    0.0033333333
    0.100000000000000    0.000000000000000    0.000000000000000    0.0033333333
    0.100000000000000    0.066666666666667    0.000000000000000    0.0033333333
    0.100000000000000    0.133333333333333    0.000000000000000    0.0033333333
    0.100000000000000    0.200000000000000    0.000000000000000    0.0033333333
    0.100000000000000    0.266666666666667    0.000000000000000    0.0033333333
    0.100000000000000    0.333333333333333    0.000000000000000    0.0033333333
    0.100000000000000    0.400000000000000    0.000000000000000    0.0033333333
    0.100000000000000    0.466666666666667    0.000000000000000    0.0033333333
    0.100000000000000   -0.466666666666667    0.000000000000000    0.0033333333
    0.100000000000000   -0.400000000000000    0.000000000000000    0.0033333333
    0.100000000000000   -0.333333333333333    0.000000000000000    0.0033333333
    0.100000000000000   -0.266666666666667    0.000000000000000    0.0033333333
    0.100000000000000   -0.200000000000000    0.000000000000000    0.0033333333
    0.100000000000000   -0.133333333333333    0.000000000000000    0.0033333333
    0.100000000000000   -0.066666666666667    0.000000000000000    0.0033333333
    0.150000000000000    0.000000000000000    0.000000000000000    0.0033333333
    0.150000000000000    0.066666666666667    0.000000000000000    0.0033333333
    0.150000000000000    0.133333333333333    0.000000000000000    0.0033333333
    0.150000000000000    0.200000000000000    0.000000000000000    0.0033333333
    0.150000000000000    0.266666666666667    0.000000000000000    0.0033333333
    0.150000000000000    0.333333333333333    0.000000000000000    0.0033333333
    0.150000000000000    0.400000000000000    0.000000000000000    0.0033333333
    0.150000000000000    0.466666666666667    0.000000000000000    0.0033333333
    0.150000000000000   -0.466666666666667    0.000000000000000    0.0033333333
    0.150000000000000   -0.400000000000000    0.000000000000000    0.0033333333
    0.150000000000000   -0.333333333333333    0.000000000000000    0.0033333333
    0.150000000000000   -0.266666666666667    0.000000000000000    0.0033333333
    0.150000000000000   -0.200000000000000    0.000000000000000    0.0033333333
    0.150000000000000   -0.133333333333333    0.000000000000000    0.0033333333
    0.150000000000000   -0.066666666666667    0.000000000000000    0.0033333333
    0.200000000000000    0.000000000000000    0.000000000000000    0.0033333333
    0.200000000000000    0.066666666666667    0.000000000000000    0.0033333333
    0.200000000000000    0.133333333333333    0.000000000000000    0.0033333333
    0.200000000000000    0.200000000000000    0.000000000000000    0.0033333333
    0.200000000000000    0.266666666666667    0.000000000000000    0.0033333333
    0.200000000000000    0.333333333333333    0.000000000000000    0.0033333333
    0.200000000000000    0.400000000000000    0.000000000000000    0.0033333333
    0.200000000000000    0.466666666666667    0.000000000000000    0.0033333333
    0.200000000000000   -0.466666666666667    0.000000000000000    0.0033333333
    0.200000000000000   -0.400000000000000    0.000000000000000    0.0033333333
    0.200000000000000   -0.333333333333333    0.000000000000000    0.0033333333
    0.200000000000000   -0.266666666666667    0.000000000000000    0.0033333333
    0.200000000000000   -0.200000000000000    0.000000000000000    0.0033333333
    0.200000000000000   -0.133333333333333    0.000000000000000    0.0033333333
    0.200000000000000   -0.066666666666667    0.000000000000000    0.0033333333
    0.250000000000000    0.000000000000000    0.000000000000000    0.0033333333
    0.250000000000000    0.066666666666667    0.000000000000000    0.0033333333
    0.250000000000000    0.133333333333333    0.000000000000000    0.0033333333
    0.250000000000000    0.200000000000000    0.000000000000000    0.0033333333
    0.250000000000000    0.266666666666667    0.000000000000000    0.0033333333
    0.250000000000000    0.333333333333333    0.000000000000000    0.0033333333
    0.250000000000000    0.400000000000000    0.000000000000000    0.0033333333
    0.250000000000000    0.466666666666667    0.000000000000000    0.0033333333
    0.250000000000000   -0.466666666666667    0.000000000000000    0.0033333333
    0.250000000000000   -0.400000000000000    0.000000000000000    0.0033333333
    0.250000000000000   -0.333333333333333    0.000000000000000    0.0033333333
    0.250000000000000   -0.266666666666667    0.000000000000000    0.0033333333
    0.250000000000000   -0.200000000000000    0.000000000000000    0.0033333333
    0.250000000000000   -0.133333333333333    0.000000000000000    0.0033333333
    0.250000000000000   -0.066666666666667    0.000000000000000    0.0033333333
    0.300000000000000    0.000000000000000    0.000000000000000    0.0033333333
    0.300000000000000    0.066666666666667    0.000000000000000    0.0033333333
    0.300000000000000    0.133333333333333    0.000000000000000    0.0033333333
    0.300000000000000    0.200000000000000    0.000000000000000    0.0033333333
    0.300000000000000    0.266666666666667    0.000000000000000    0.0033333333
    0.300000000000000    0.333333333333333    0.000000000000000    0.0033333333
    0.300000000000000    0.400000000000000    0.000000000000000    0.0033333333
    0.300000000000000    0.466666666666667    0.000000000000000    0.0033333333
    0.300000000000000   -0.466666666666667    0.000000000000000    0.0033333333
    0.300000000000000   -0.400000000000000    0.000000000000000    0.0033333333
    0.300000000000000   -0.333333333333333    0.000000000000000    0.0033333333
    0.300000000000000   -0.266666666666667    0.000000000000000    0.0033333333
    0.300000000000000   -0.200000000000000    0.000000000000000    0.0033333333
    0.300000000000000   -0.133333333333333    0.000000000000000    0.0033333333
    0.300000000000000   -0.066666666666667    0.000000000000000    0.0033333333
    0.350000000000000    0.000000000000000    0.000000000000000    0.0033333333
    0.350000000000000    0.066666666666667    0.000000000000000    0.0033333333
    0.350000000000000    0.133333333333333    0.000000000000000    0.0033333333
    0.350000000000000    0.200000000000000    0.000000000000000    0.0033333333
    0.350000000000000    0.266666666666667    0.000000000000000    0.0033333333
    0.350000000000000    0.333333333333333    0.000000000000000    0.0033333333
    0.350000000000000    0.400000000000000    0.000000000000000    0.0033333333
    0.350000000000000    0.466666666666667    0.000000000000000    0.0033333333
    0.350000000000000   -0.466666666666667    0.000000000000000    0.0033333333
    0.350000000000000   -0.400000000000000    0.000000000000000    0.0033333333
    0.350000000000000   -0.333333333333333    0.000000000000000    0.0033333333
    0.350000000000000   -0.266666666666667    0.000000000000000    0.0033333333
    0.350000000000000   -0.200000000000000    0.000000000000000    0.0033333333
    0.350000000000000   -0.133333333333333    0.000000000000000    0.0033333333
    0.350000000000000   -0.066666666666667    0.000000000000000    0.0033333333
    0.400000000000000    0.000000000000000    0.000000000000000    0.0033333333
    0.400000000000000    0.066666666666667    0.000000000000000    0.0033333333
    0.400000000000000    0.133333333333333    0.000000000000000    0.0033333333
    0.400000000000000    0.200000000000000    0.000000000000000    0.0033333333
    0.400000000000000    0.266666666666667    0.000000000000000    0.0033333333
    0.400000000000000    0.333333333333333    0.000000000000000    0.0033333333
    0.400000000000000    0.400000000000000    0.000000000000000    0.0033333333
    0.400000000000000    0.466666666666667    0.000000000000000    0.0033333333
    0.400000000000000   -0.466666666666667    0.000000000000000    0.0033333333
    0.400000000000000   -0.400000000000000    0.000000000000000    0.0033333333
    0.400000000000000   -0.333333333333333    0.000000000000000    0.0033333333
    0.400000000000000   -0.266666666666667    0.000000000000000    0.0033333333
    0.400000000000000   -0.200000000000000    0.000000000000000    0.0033333333
    0.400000000000000   -0.133333333333333    0.000000000000000    0.0033333333
    0.400000000000000   -0.066666666666667    0.000000000000000    0.0033333333
    0.450000000000000    0.000000000000000    0.000000000000000    0.0033333333
    0.450000000000000    0.066666666666667    0.000000000000000    0.0033333333
    0.450000000000000    0.133333333333333    0.000000000000000    0.0033333333
    0.450000000000000    0.200000000000000    0.000000000000000    0.0033333333
    0.450000000000000    0.266666666666667    0.000000000000000    0.0033333333
    0.450000000000000    0.333333333333333    0.000000000000000    0.0033333333
    0.450000000000000    0.400000000000000    0.000000000000000    0.0033333333
    0.450000000000000    0.466666666666667    0.000000000000000    0.0033333333
    0.450000000000000   -0.466666666666667    0.000000000000000    0.0033333333
    0.450000000000000   -0.400000000000000    0.000000000000000    0.0033333333
    0.450000000000000   -0.333333333333333    0.000000000000000    0.0033333333
    0.450000000000000   -0.266666666666667    0.000000000000000    0.0033333333
    0.450000000000000   -0.200000000000000    0.000000000000000    0.0033333333
    0.450000000000000   -0.133333333333333    0.000000000000000    0.0033333333
    0.450000000000000   -0.066666666666667    0.000000000000000    0.0033333333
   -0.500000000000000    0.000000000000000    0.000000000000000    0.0033333333
   -0.500000000000000    0.066666666666667    0.000000000000000    0.0033333333
   -0.500000000000000    0.133333333333333    0.000000000000000    0.0033333333
   -0.500000000000000    0.200000000000000    0.000000000000000    0.0033333333
   -0.500000000000000    0.266666666666667    0.000000000000000    0.0033333333
   -0.500000000000000    0.333333333333333    0.000000000000000    0.0033333333
   -0.500000000000000    0.400000000000000    0.000000000000000    0.0033333333
   -0.500000000000000    0.466666666666667    0.000000000000000    0.0033333333
    0.500000000000000   -0.466666666666667    0.000000000000000    0.0033333333
    0.500000000000000   -0.400000000000000    0.000000000000000    0.0033333333
    0.500000000000000   -0.333333333333333    0.000000000000000    0.0033333333
    0.500000000000000   -0.266666666666667    0.000000000000000    0.0033333333
    0.500000000000000   -0.200000000000000    0.000000000000000    0.0033333333
    0.500000000000000   -0.133333333333333    0.000000000000000    0.0033333333
    0.500000000000000   -0.066666666666667    0.000000000000000    0.0033333333
   -0.450000000000000    0.000000000000000    0.000000000000000    0.0033333333
   -0.450000000000000    0.066666666666667    0.000000000000000    0.0033333333
   -0.450000000000000    0.133333333333333    0.000000000000000    0.0033333333
   -0.450000000000000    0.200000000000000    0.000000000000000    0.0033333333
   -0.450000000000000    0.266666666666667    0.000000000000000    0.0033333333
   -0.450000000000000    0.333333333333333    0.000000000000000    0.0033333333
   -0.450000000000000    0.400000000000000    0.000000000000000    0.0033333333
   -0.450000000000000    0.466666666666667    0.000000000000000    0.0033333333
   -0.450000000000000   -0.466666666666667    0.000000000000000    0.0033333333
   -0.450000000000000   -0.400000000000000    0.000000000000000    0.0033333333
   -0.450000000000000   -0.333333333333333    0.000000000000000    0.0033333333
   -0.450000000000000   -0.266666666666667    0.000000000000000    0.0033333333
   -0.450000000000000   -0.200000000000000    0.000000000000000    0.0033333333
   -0.450000000000000   -0.133333333333333    0.000000000000000    0.0033333333
   -0.450000000000000   -0.066666666666667    0.000000000000000    0.0033333333
   -0.400000000000000    0.000000000000000    0.000000000000000    0.0033333333
   -0.400000000000000    0.066666666666667    0.000000000000000    0.0033333333
   -0.400000000000000    0.133333333333333    0.000000000000000    0.0033333333
   -0.400000000000000    0.200000000000000    0.000000000000000    0.0033333333
   -0.400000000000000    0.266666666666667    0.000000000000000    0.0033333333
   -0.400000000000000    0.333333333333333    0.000000000000000    0.0033333333
   -0.400000000000000    0.400000000000000    0.000000000000000    0.0033333333
   -0.400000000000000    0.466666666666667    0.000000000000000    0.0033333333
   -0.400000000000000   -0.466666666666667    0.000000000000000    0.0033333333
   -0.400000000000000   -0.400000000000000    0.000000000000000    0.0033333333
   -0.400000000000000   -0.333333333333333    0.000000000000000    0.0033333333
   -0.400000000000000   -0.266666666666667    0.000000000000000    0.0033333333
   -0.400000000000000   -0.200000000000000    0.000000000000000    0.0033333333
   -0.400000000000000   -0.133333333333333    0.000000000000000    0.0033333333
   -0.400000000000000   -0.066666666666667    0.000000000000000    0.0033333333
   -0.350000000000000    0.000000000000000    0.000000000000000    0.0033333333
   -0.350000000000000    0.066666666666667    0.000000000000000    0.0033333333
   -0.350000000000000    0.133333333333333    0.000000000000000    0.0033333333
   -0.350000000000000    0.200000000000000    0.000000000000000    0.0033333333
   -0.350000000000000    0.266666666666667    0.000000000000000    0.0033333333
   -0.350000000000000    0.333333333333333    0.000000000000000    0.0033333333
   -0.350000000000000    0.400000000000000    0.000000000000000    0.0033333333
   -0.350000000000000    0.466666666666667    0.000000000000000    0.0033333333
   -0.350000000000000   -0.466666666666667    0.000000000000000    0.0033333333
   -0.350000000000000   -0.400000000000000    0.000000000000000    0.0033333333
   -0.350000000000000   -0.333333333333333    0.000000000000000    0.0033333333
   -0.350000000000000   -0.266666666666667    0.000000000000000    0.0033333333
   -0.350000000000000   -0.200000000000000    0.000000000000000    0.0033333333
   -0.350000000000000   -0.133333333333333    0.000000000000000    0.0033333333
   -0.350000000000000   -0.066666666666667    0.000000000000000    0.0033333333
   -0.300000000000000    0.000000000000000    0.000000000000000    0.0033333333
   -0.300000000000000    0.066666666666667    0.000000000000000    0.0033333333
   -0.300000000000000    0.133333333333333    0.000000000000000    0.0033333333
   -0.300000000000000    0.200000000000000    0.000000000000000    0.0033333333
   -0.300000000000000    0.266666666666667    0.000000000000000    0.0033333333
   -0.300000000000000    0.333333333333333    0.000000000000000    0.0033333333
   -0.300000000000000    0.400000000000000    0.000000000000000    0.0033333333
   -0.300000000000000    0.466666666666667    0.000000000000000    0.0033333333
   -0.300000000000000   -0.466666666666667    0.000000000000000    0.0033333333
   -0.300000000000000   -0.400000000000000    0.000000000000000    0.0033333333
   -0.300000000000000   -0.333333333333333    0.000000000000000    0.0033333333
   -0.300000000000000   -0.266666666666667    0.000000000000000    0.0033333333
   -0.300000000000000   -0.200000000000000    0.000000000000000    0.0033333333
   -0.300000000000000   -0.133333333333333    0.000000000000000    0.0033333333
   -0.300000000000000   -0.066666666666667    0.000000000000000    0.0033333333
   -0.250000000000000    0.000000000000000    0.000000000000000    0.0033333333
   -0.250000000000000    0.066666666666667    0.000000000000000    0.0033333333
   -0.250000000000000    0.133333333333333    0.000000000000000    0.0033333333
   -0.250000000000000    0.200000000000000    0.000000000000000    0.0033333333
   -0.250000000000000    0.266666666666667    0.000000000000000    0.0033333333
   -0.250000000000000    0.333333333333333    0.000000000000000    0.0033333333
   -0.250000000000000    0.400000000000000    0.000000000000000    0.0033333333
   -0.250000000000000    0.466666666666667    0.000000000000000    0.0033333333
   -0.250000000000000   -0.466666666666667    0.000000000000000    0.0033333333
   -0.250000000000000   -0.400000000000000    0.000000000000000    0.0033333333
   -0.250000000000000   -0.333333333333333    0.000000000000000    0.0033333333
   -0.250000000000000   -0.266666666666667    0.000000000000000    0.0033333333
   -0.250000000000000   -0.200000000000000    0.000000000000000    0.0033333333
   -0.250000000000000   -0.133333333333333    0.000000000000000    0.0033333333
   -0.250000000000000   -0.066666666666667    0.000000000000000    0.0033333333
   -0.200000000000000    0.000000000000000    0.000000000000000    0.0033333333
   -0.200000000000000    0.066666666666667    0.000000000000000    0.0033333333
   -0.200000000000000    0.133333333333333    0.000000000000000    0.0033333333
   -0.200000000000000    0.200000000000000    0.000000000000000    0.0033333333
   -0.200000000000000    0.266666666666667    0.000000000000000    0.0033333333
   -0.200000000000000    0.333333333333333    0.000000000000000    0.0033333333
   -0.200000000000000    0.400000000000000    0.000000000000000    0.0033333333
   -0.200000000000000    0.466666666666667    0.000000000000000    0.0033333333
   -0.200000000000000   -0.466666666666667    0.000000000000000    0.0033333333
   -0.200000000000000   -0.400000000000000    0.000000000000000    0.0033333333
   -0.200000000000000   -0.333333333333333    0.000000000000000    0.0033333333
   -0.200000000000000   -0.266666666666667    0.000000000000000    0.0033333333
   -0.200000000000000   -0.200000000000000    0.000000000000000    0.0033333333
   -0.200000000000000   -0.133333333333333    0.000000000000000    0.0033333333
   -0.200000000000000   -0.066666666666667    0.000000000000000    0.0033333333
   -0.150000000000000    0.000000000000000    0.000000000000000    0.0033333333
   -0.150000000000000    0.066666666666667    0.000000000000000    0.0033333333
   -0.150000000000000    0.133333333333333    0.000000000000000    0.0033333333
   -0.150000000000000    0.200000000000000    0.000000000000000    0.0033333333
   -0.150000000000000    0.266666666666667    0.000000000000000    0.0033333333
   -0.150000000000000    0.333333333333333    0.000000000000000    0.0033333333
   -0.150000000000000    0.400000000000000    0.000000000000000    0.0033333333
   -0.150000000000000    0.466666666666667    0.000000000000000    0.0033333333
   -0.150000000000000   -0.466666666666667    0.000000000000000    0.0033333333
   -0.150000000000000   -0.400000000000000    0.000000000000000    0.0033333333
   -0.150000000000000   -0.333333333333333    0.000000000000000    0.0033333333
   -0.150000000000000   -0.266666666666667    0.000000000000000    0.0033333333
   -0.150000000000000   -0.200000000000000    0.000000000000000    0.0033333333
   -0.150000000000000   -0.133333333333333    0.000000000000000    0.0033333333
   -0.150000000000000   -0.066666666666667    0.000000000000000    0.0033333333
   -0.100000000000000    0.000000000000000    0.000000000000000    0.0033333333
   -0.100000000000000    0.066666666666667    0.000000000000000    0.0033333333
   -0.100000000000000    0.133333333333333    0.000000000000000    0.0033333333
   -0.100000000000000    0.200000000000000    0.000000000000000    0.0033333333
   -0.100000000000000    0.266666666666667    0.000000000000000    0.0033333333
   -0.100000000000000    0.333333333333333    0.000000000000000    0.0033333333
   -0.100000000000000    0.400000000000000    0.000000000000000    0.0033333333
   -0.100000000000000    0.466666666666667    0.000000000000000    0.0033333333
   -0.100000000000000   -0.466666666666667    0.000000000000000    0.0033333333
   -0.100000000000000   -0.400000000000000    0.000000000000000    0.0033333333
   -0.100000000000000   -0.333333333333333    0.000000000000000    0.0033333333
   -0.100000000000000   -0.266666666666667    0.000000000000000    0.0033333333
   -0.100000000000000   -0.200000000000000    0.000000000000000    0.0033333333
   -0.100000000000000   -0.133333333333333    0.000000000000000    0.0033333333
   -0.100000000000000   -0.066666666666667    0.000000000000000    0.0033333333
   -0.050000000000000    0.000000000000000    0.000000000000000    0.0033333333
   -0.050000000000000    0.066666666666667    0.000000000000000    0.0033333333
   -0.050000000000000    0.133333333333333    0.000000000000000    0.0033333333
   -0.050000000000000    0.200000000000000    0.000000000000000    0.0033333333
   -0.050000000000000    0.266666666666667    0.000000000000000    0.0033333333
   -0.050000000000000    0.333333333333333    0.000000000000000    0.0033333333
   -0.050000000000000    0.400000000000000    0.000000000000000    0.0033333333
   -0.050000000000000    0.466666666666667    0.000000000000000    0.0033333333
   -0.050000000000000   -0.466666666666667    0.000000000000000    0.0033333333
   -0.050000000000000   -0.400000000000000    0.000000000000000    0.0033333333
   -0.050000000000000   -0.333333333333333    0.000000000000000    0.0033333333
   -0.050000000000000   -0.266666666666667    0.000000000000000    0.0033333333
   -0.050000000000000   -0.200000000000000    0.000000000000000    0.0033333333
   -0.050000000000000   -0.133333333333333    0.000000000000000    0.0033333333
   -0.050000000000000   -0.066666666666667    0.000000000000000    0.0033333333
end kpoints
 
 
