num_wann        = 56
num_bands       = 68 
dis_num_iter    = 400
num_iter        = 8000
guiding_centres =.true.
spinors         = .true.
use_ws_distance = .true.
write_xyz = .true.
write_hr = .true.

begin atoms_frac
W    0.000000000   0.302083497   0.500244478
W    0.500000000   0.658254798   0.514864463
Te   0.000000000   0.559876487   0.657616629
Te   0.500000000   0.400364267   0.357479252
Te   0.000000000   0.907356441   0.401718010
Te   0.500000000   0.052954518   0.613367162
end atoms_frac

begin projections
W:s,d
Te:s,p
end projections

begin unit_cell_cart
bohr
6.576   0.000    0.000
0.000   11.849952  0.000
0.000   0.000    26.5118016  
end unit_cell_cart

wannier_plot = .true.
wannier_plot_spinor_phase = .true.
wannier_plot_spinor_mode = up_real
wannier_plot_mode = crystal
wannier_plot_radius = 4
wannier_plot_list = 1-19
wannier_plot_supercell = 3
wannier_plot_format = xcrysden
bands_plot = .true.

begin kpoint_path
X  0.500000 0.00000 0.00000  G  0.000000 0.00000 0.00000
G  0.000000 0.00000 0.00000  X  0.500000 0.00000 0.00000
end kpoint_path

mp_grid : 12 10 1

begin kpoints
    0.000000000000000    0.000000000000000    0.000000000000000    0.0083333333
    0.000000000000000    0.100000000000000    0.000000000000000    0.0083333333
    0.000000000000000    0.200000000000000    0.000000000000000    0.0083333333
    0.000000000000000    0.300000000000000    0.000000000000000    0.0083333333
    0.000000000000000    0.400000000000000    0.000000000000000    0.0083333333
    0.000000000000000   -0.500000000000000    0.000000000000000    0.0083333333
    0.000000000000000   -0.400000000000000    0.000000000000000    0.0083333333
    0.000000000000000   -0.300000000000000    0.000000000000000    0.0083333333
    0.000000000000000   -0.200000000000000    0.000000000000000    0.0083333333
    0.000000000000000   -0.100000000000000    0.000000000000000    0.0083333333
    0.083333333333333    0.000000000000000    0.000000000000000    0.0083333333
    0.083333333333333    0.100000000000000    0.000000000000000    0.0083333333
    0.083333333333333    0.200000000000000    0.000000000000000    0.0083333333
    0.083333333333333    0.300000000000000    0.000000000000000    0.0083333333
    0.083333333333333    0.400000000000000    0.000000000000000    0.0083333333
    0.083333333333333   -0.500000000000000    0.000000000000000    0.0083333333
    0.083333333333333   -0.400000000000000    0.000000000000000    0.0083333333
    0.083333333333333   -0.300000000000000    0.000000000000000    0.0083333333
    0.083333333333333   -0.200000000000000    0.000000000000000    0.0083333333
    0.083333333333333   -0.100000000000000    0.000000000000000    0.0083333333
    0.166666666666667    0.000000000000000    0.000000000000000    0.0083333333
    0.166666666666667    0.100000000000000    0.000000000000000    0.0083333333
    0.166666666666667    0.200000000000000    0.000000000000000    0.0083333333
    0.166666666666667    0.300000000000000    0.000000000000000    0.0083333333
    0.166666666666667    0.400000000000000    0.000000000000000    0.0083333333
    0.166666666666667   -0.500000000000000    0.000000000000000    0.0083333333
    0.166666666666667   -0.400000000000000    0.000000000000000    0.0083333333
    0.166666666666667   -0.300000000000000    0.000000000000000    0.0083333333
    0.166666666666667   -0.200000000000000    0.000000000000000    0.0083333333
    0.166666666666667   -0.100000000000000    0.000000000000000    0.0083333333
    0.250000000000000    0.000000000000000    0.000000000000000    0.0083333333
    0.250000000000000    0.100000000000000    0.000000000000000    0.0083333333
    0.250000000000000    0.200000000000000    0.000000000000000    0.0083333333
    0.250000000000000    0.300000000000000    0.000000000000000    0.0083333333
    0.250000000000000    0.400000000000000    0.000000000000000    0.0083333333
    0.250000000000000   -0.500000000000000    0.000000000000000    0.0083333333
    0.250000000000000   -0.400000000000000    0.000000000000000    0.0083333333
    0.250000000000000   -0.300000000000000    0.000000000000000    0.0083333333
    0.250000000000000   -0.200000000000000    0.000000000000000    0.0083333333
    0.250000000000000   -0.100000000000000    0.000000000000000    0.0083333333
    0.333333333333333    0.000000000000000    0.000000000000000    0.0083333333
    0.333333333333333    0.100000000000000    0.000000000000000    0.0083333333
    0.333333333333333    0.200000000000000    0.000000000000000    0.0083333333
    0.333333333333333    0.300000000000000    0.000000000000000    0.0083333333
    0.333333333333333    0.400000000000000    0.000000000000000    0.0083333333
    0.333333333333333   -0.500000000000000    0.000000000000000    0.0083333333
    0.333333333333333   -0.400000000000000    0.000000000000000    0.0083333333
    0.333333333333333   -0.300000000000000    0.000000000000000    0.0083333333
    0.333333333333333   -0.200000000000000    0.000000000000000    0.0083333333
    0.333333333333333   -0.100000000000000    0.000000000000000    0.0083333333
    0.416666666666667    0.000000000000000    0.000000000000000    0.0083333333
    0.416666666666667    0.100000000000000    0.000000000000000    0.0083333333
    0.416666666666667    0.200000000000000    0.000000000000000    0.0083333333
    0.416666666666667    0.300000000000000    0.000000000000000    0.0083333333
    0.416666666666667    0.400000000000000    0.000000000000000    0.0083333333
    0.416666666666667   -0.500000000000000    0.000000000000000    0.0083333333
    0.416666666666667   -0.400000000000000    0.000000000000000    0.0083333333
    0.416666666666667   -0.300000000000000    0.000000000000000    0.0083333333
    0.416666666666667   -0.200000000000000    0.000000000000000    0.0083333333
    0.416666666666667   -0.100000000000000    0.000000000000000    0.0083333333
   -0.500000000000000    0.000000000000000    0.000000000000000    0.0083333333
   -0.500000000000000    0.100000000000000    0.000000000000000    0.0083333333
   -0.500000000000000    0.200000000000000    0.000000000000000    0.0083333333
   -0.500000000000000    0.300000000000000    0.000000000000000    0.0083333333
   -0.500000000000000    0.400000000000000    0.000000000000000    0.0083333333
   -0.500000000000000   -0.500000000000000    0.000000000000000    0.0083333333
    0.500000000000000   -0.400000000000000    0.000000000000000    0.0083333333
    0.500000000000000   -0.300000000000000    0.000000000000000    0.0083333333
    0.500000000000000   -0.200000000000000    0.000000000000000    0.0083333333
    0.500000000000000   -0.100000000000000    0.000000000000000    0.0083333333
   -0.416666666666667    0.000000000000000    0.000000000000000    0.0083333333
   -0.416666666666667    0.100000000000000    0.000000000000000    0.0083333333
   -0.416666666666667    0.200000000000000    0.000000000000000    0.0083333333
   -0.416666666666667    0.300000000000000    0.000000000000000    0.0083333333
   -0.416666666666667    0.400000000000000    0.000000000000000    0.0083333333
   -0.416666666666667    0.500000000000000    0.000000000000000    0.0083333333
   -0.416666666666667   -0.400000000000000    0.000000000000000    0.0083333333
   -0.416666666666667   -0.300000000000000    0.000000000000000    0.0083333333
   -0.416666666666667   -0.200000000000000    0.000000000000000    0.0083333333
   -0.416666666666667   -0.100000000000000    0.000000000000000    0.0083333333
   -0.333333333333333    0.000000000000000    0.000000000000000    0.0083333333
   -0.333333333333333    0.100000000000000    0.000000000000000    0.0083333333
   -0.333333333333333    0.200000000000000    0.000000000000000    0.0083333333
   -0.333333333333333    0.300000000000000    0.000000000000000    0.0083333333
   -0.333333333333333    0.400000000000000    0.000000000000000    0.0083333333
   -0.333333333333333    0.500000000000000    0.000000000000000    0.0083333333
   -0.333333333333333   -0.400000000000000    0.000000000000000    0.0083333333
   -0.333333333333333   -0.300000000000000    0.000000000000000    0.0083333333
   -0.333333333333333   -0.200000000000000    0.000000000000000    0.0083333333
   -0.333333333333333   -0.100000000000000    0.000000000000000    0.0083333333
   -0.250000000000000    0.000000000000000    0.000000000000000    0.0083333333
   -0.250000000000000    0.100000000000000    0.000000000000000    0.0083333333
   -0.250000000000000    0.200000000000000    0.000000000000000    0.0083333333
   -0.250000000000000    0.300000000000000    0.000000000000000    0.0083333333
   -0.250000000000000    0.400000000000000    0.000000000000000    0.0083333333
   -0.250000000000000    0.500000000000000    0.000000000000000    0.0083333333
   -0.250000000000000   -0.400000000000000    0.000000000000000    0.0083333333
   -0.250000000000000   -0.300000000000000    0.000000000000000    0.0083333333
   -0.250000000000000   -0.200000000000000    0.000000000000000    0.0083333333
   -0.250000000000000   -0.100000000000000    0.000000000000000    0.0083333333
   -0.166666666666667    0.000000000000000    0.000000000000000    0.0083333333
   -0.166666666666667    0.100000000000000    0.000000000000000    0.0083333333
   -0.166666666666667    0.200000000000000    0.000000000000000    0.0083333333
   -0.166666666666667    0.300000000000000    0.000000000000000    0.0083333333
   -0.166666666666667    0.400000000000000    0.000000000000000    0.0083333333
   -0.166666666666667    0.500000000000000    0.000000000000000    0.0083333333
   -0.166666666666667   -0.400000000000000    0.000000000000000    0.0083333333
   -0.166666666666667   -0.300000000000000    0.000000000000000    0.0083333333
   -0.166666666666667   -0.200000000000000    0.000000000000000    0.0083333333
   -0.166666666666667   -0.100000000000000    0.000000000000000    0.0083333333
   -0.083333333333333    0.000000000000000    0.000000000000000    0.0083333333
   -0.083333333333333    0.100000000000000    0.000000000000000    0.0083333333
   -0.083333333333333    0.200000000000000    0.000000000000000    0.0083333333
   -0.083333333333333    0.300000000000000    0.000000000000000    0.0083333333
   -0.083333333333333    0.400000000000000    0.000000000000000    0.0083333333
   -0.083333333333333    0.500000000000000    0.000000000000000    0.0083333333
   -0.083333333333333   -0.400000000000000    0.000000000000000    0.0083333333
   -0.083333333333333   -0.300000000000000    0.000000000000000    0.0083333333
   -0.083333333333333   -0.200000000000000    0.000000000000000    0.0083333333
   -0.083333333333333   -0.100000000000000    0.000000000000000    0.0083333333
end kpoints
 
 
